(set-logic QF_S)
(declare-fun var_0xINPUT_378954 () String)
(assert (and (= (len var_0xINPUT_378954) 0) (= (len var_0xINPUT_378954) 0) (not (= var_0xINPUT_378954 "2vbcJ9lN6J"))))
(check-sat var_0xINPUT_378954)